
  14    0


   0   7 2 3 9 10 11 12 13 
   2   4 8 7 6 4 
   4   2 5 4 
   5   1 14
  10   1 14
   2   1 14
   9   1 14
   5   1 14
   6   1 14
   1   1 14
   9   1 14
   1   1 14
  10   1 14
   0   0 
